N = 5;
H = 6;
T = 2;

avail = array3d(1..N, 1..H, 1..T, [7, 7, 4, 1, 5, 1, 6, 4, 8, 9, 2, 10, 8, 1, 8, 10, 3, 10, 2, 0, 8, 0, 3, 1, 5, 5, 8, 6, 4, 9, 10, 5, 3, 2, 6, 6, 10, 9, 0, 10, 10, 0, 5, 7, 1, 10, 3, 8, 8, 10, 6, 2, 9, 0, 5, 1, 3, 6, 10, 2]);

r = array2d(1..H, 1..T, [2, 1, 0, 1, 1, 0, 0, 1, 1, 0, 1, 1]);
